(declare-const |return':409:451| Int)
(declare-const havoc Int)
(declare-const |param0':410:450| Int)
(assert (and (<= (- havoc) 0)
               (<= (+ (- |return':409:451|) (* 2 |param0':410:450|) (- havoc)) 0)
               (<= (+ |param0':410:450| -1) 0)
               (<= (+ |return':409:451| (- |param0':410:450|)) 0)
               (<= (- |return':409:451|) 0)
               (not (= (+ (- (mod havoc 2)) |return':409:451|) 0))))
(check-sat)
